p cnf 25 151
5 4 3 -2 -1 0
-12 15 13 -11 -14 0
-4 -3 2 -1 -5 0
-24 -21 22 -25 -23 0
25 -22 -23 -24 21 0
25 23 -21 24 22 0
7 9 -6 10 8 0
-23 -22 21 24 -25 0
15 12 -13 -14 -11 0
22 21 25 -24 23 0
-24 22 -25 21 23 0
8 -9 6 -10 7 0
23 22 -24 -25 -21 0
16 -19 -18 17 20 0
-15 -13 -12 11 -14 0
-10 -9 8 -6 7 0
-18 -20 16 -17 19 0
11 13 -14 -12 15 0
16 17 18 -20 -19 0
4 -3 2 1 5 0
-13 11 -15 -14 12 0
18 19 -20 16 17 0
17 16 -19 -20 -18 0
7 -6 9 -8 10 0
15 14 -13 -12 11 0
7 -6 -8 10 -9 0
8 -10 -9 -6 -7 0
-18 -16 -17 20 -19 0
-15 -11 13 14 12 0
4 5 -2 1 -3 0
6 -20 5 23 12 0
-25 22 -23 21 -24 0
10 -9 -8 -7 6 0
-6 -10 9 8 7 0
23 -25 -22 -24 21 0
1 -5 -4 -2 -3 0
20 -16 -19 17 18 0
15 -11 13 14 -12 0
12 13 -14 15 11 0
-6 10 7 -9 8 0
19 18 -17 -20 -16 0
-8 9 6 -10 -7 0
-4 5 2 -3 1 0
-23 -22 24 25 -21 0
6 7 -10 8 9 0
-8 -6 -9 10 -7 0
-11 13 -14 -15 12 0
20 -18 -17 16 -19 0
-15 13 -12 11 14 0
-6 -8 -10 7 -9 0
-10 14 1 -24 -16 0
-15 13 12 14 11 0
-12 -14 -11 13 -15 0
2 5 3 -4 1 0
-23 -12 -4 -10 20 0
-20 -16 17 -19 -18 0
14 15 -13 12 -11 0
12 -14 11 -15 13 0
-16 19 -20 -17 -18 0
1 -4 -5 2 -3 0
25 2 -20 6 14 0
23 -24 -21 -22 -25 0
20 -19 16 -17 18 0
8 -12 -18 -4 -23 0
9 6 -10 -7 8 0
-22 23 -24 -21 25 0
-8 -7 -9 -6 -10 0
-17 16 19 20 18 0
-4 -8 23 -20 -12 0
3 -5 1 -2 4 0
-24 -23 -21 -22 25 0
-20 -17 16 19 18 0
19 20 -16 -17 18 0
-1 2 -4 -5 3 0
-5 -3 -1 -4 -2 0
19 17 -20 -16 18 0
9 -17 25 -1 -12 0
-21 25 22 -24 23 0
23 -8 16 -13 -1 0
-25 21 24 22 23 0
14 -15 -11 -12 13 0
23 -22 25 -24 21 0
-1 -22 18 8 11 0
9 -8 7 -10 6 0
15 11 14 13 -12 0
-14 11 -13 -12 15 0
-21 22 24 -23 -25 0
10 8 6 -7 -9 0
-16 -19 18 20 -17 0
-25 -10 19 11 2 0
5 -2 3 1 -4 0
-23 24 -21 -25 -22 0
-8 -7 9 6 10 0
-1 3 -4 2 5 0
9 8 -6 -7 10 0
5 -3 -4 -2 1 0
7 -9 8 10 6 0
4 -1 -2 -3 -5 0
-16 -18 -17 -19 -20 0
-7 -6 -10 -8 9 0
16 17 19 20 -18 0
11 12 14 13 15 0
11 -14 -13 12 15 0
1 -5 4 2 3 0
-1 -2 -3 4 5 0
20 17 -19 -18 -16 0
6 -8 -9 7 -10 0
-15 -13 -12 14 -11 0
-12 15 -11 -14 -13 0
-10 6 -9 -7 -8 0
21 24 -22 -23 25 0
-2 -4 -5 3 -1 0
17 18 19 -16 20 0
20 16 -18 19 -17 0
3 4 -2 -1 -5 0
-23 25 21 22 -24 0
24 25 21 22 -23 0
9 6 10 8 7 0
-23 21 22 -25 24 0
20 16 19 18 17 0
3 1 -2 -5 -4 0
11 14 12 -15 -13 0
-8 10 9 6 7 0
2 18 -6 14 -24 0
10 11 -20 4 -22 0
2 1 -5 -4 3 0
5 2 1 4 3 0
6 -15 23 19 -1 0
-25 14 -1 -9 18 0
12 -13 -15 -14 -11 0
20 25 -3 -14 -8 0
-12 11 -13 14 -15 0
-11 -14 13 15 12 0
-4 19 8 -23 -14 0
-24 -23 -21 -22 -25 0
-5 -3 2 4 1 0
-22 13 -10 19 -5 0
24 -21 25 -23 22 0
-23 -21 -24 25 22 0
-21 15 10 5 -19 0
18 17 -19 16 20 0
-2 -4 -1 5 -3 0
-25 23 -21 24 -22 0
-22 25 23 21 24 0
-21 24 23 -22 25 0
23 24 22 25 21 0
-13 14 15 -11 -12 0
-15 -11 14 -13 12 0
15 11 12 -13 14 0
3 -1 4 -5 2 0
7 10 6 -8 -9 0
